Minimize
  k_{0,1} + k_{0,2} + k_{0,3} + k_{0,4} + k_{1,2} + k_{1,3} + k_{1,4}
   + k_{2,3} + k_{2,4} + k_{3,4}
Subject To
 Cycle.0-1: - -0 k_{0,1} >= -11.52963458
 Cycle.0-2: - -0 k_{0,2} >= -39.5719697
 Cycle.1-2: - -0 k_{1,2} >= -361.372549
 Cycle.0-3: - -0 k_{0,3} >= -157.6679293
 Cycle.1-3: - -0 k_{1,3} >= -905.869281
 Cycle.2-3: - -0 k_{2,3} >= -2210.111111
 Cycle.0-4: - -0 k_{0,4} >= -1.6960651289e-04
 Cycle.1-4: - -0 k_{1,4} >= -19.41205736
 Cycle.2-4: - -0 k_{2,4} >= -61.5721393
 Cycle.3-4: - -0 k_{3,4} >= -211.668325
 Cycle.0-2-1: - 31.52963458 k_{0,1} + 76.5719697 k_{0,2}
   - 396.372549 k_{1,2} >= -30.5719697
 Cycle.0-1-2: 31.52963458 k_{0,1} - 76.5719697 k_{0,2} + 396.372549 k_{1,2}
   >= -381.9021836
 Cycle.0-3-1: - 31.52963458 k_{0,1} + 178.6679293 k_{0,3}
   - 924.869281 k_{1,3} >= -148.6679293
 Cycle.0-1-3: 31.52963458 k_{0,1} - 178.6679293 k_{0,3}
   + 924.869281 k_{1,3} >= -926.3989156
 Cycle.0-3-2: - 76.5719697 k_{0,2} + 178.6679293 k_{0,3}
   - 2246.111111 k_{2,3} >= -131.6679293
 Cycle.0-2-3: 76.5719697 k_{0,2} - 178.6679293 k_{0,3}
   + 2246.111111 k_{2,3} >= -2275.683081
 Cycle.1-3-2: - 396.372549 k_{1,2} + 924.869281 k_{1,3}
   - 2246.111111 k_{2,3} >= -879.869281
 Cycle.1-2-3: 396.372549 k_{1,2} - 924.869281 k_{1,3} + 2246.111111 k_{2,3}
   >= -2597.48366
 Cycle.0-4-1: - 31.52963458 k_{0,1} + 24.00016961 k_{0,4}
   - 41.41205736 k_{1,4} >= 8.999830393
 Cycle.0-1-4: 31.52963458 k_{0,1} - 24.00016961 k_{0,4}
   + 41.41205736 k_{1,4} >= -39.94169194
 Cycle.0-4-2: - 76.5719697 k_{0,2} + 24.00016961 k_{0,4}
   - 100.5721393 k_{2,4} >= 25.99983039
 Cycle.0-2-4: 76.5719697 k_{0,2} - 24.00016961 k_{0,4}
   + 100.5721393 k_{2,4} >= -127.144109
 Cycle.1-4-2: - 396.372549 k_{1,2} + 41.41205736 k_{1,4}
   - 100.5721393 k_{2,4} >= 6.58794264
 Cycle.1-2-4: 396.372549 k_{1,2} - 41.41205736 k_{1,4}
   + 100.5721393 k_{2,4} >= -448.9446883
 Cycle.0-4-3: - 178.6679293 k_{0,3} + 24.00016961 k_{0,4}
   - 234.668325 k_{3,4} >= 9.999830393
 Cycle.0-3-4: 178.6679293 k_{0,3} - 24.00016961 k_{0,4}
   + 234.668325 k_{3,4} >= -379.3362543
 Cycle.1-4-3: - 924.869281 k_{1,3} + 41.41205736 k_{1,4}
   - 234.668325 k_{3,4} >= -9.41205736
 Cycle.1-3-4: 924.869281 k_{1,3} - 41.41205736 k_{1,4} + 234.668325 k_{3,4}
   >= -1127.537606
 Cycle.2-4-3: - 2246.111111 k_{2,3} + 100.5721393 k_{2,4}
   - 234.668325 k_{3,4} >= -51.5721393
 Cycle.2-3-4: 2246.111111 k_{2,3} - 100.5721393 k_{2,4}
   + 234.668325 k_{3,4} >= -2431.779436
 Cycle.0-3-2-1: - 31.52963458 k_{0,1} + 178.6679293 k_{0,3}
   - 396.372549 k_{1,2} - 2246.111111 k_{2,3} >= -122.6679293
 Cycle.0-2-3-1: - 31.52963458 k_{0,1} + 76.5719697 k_{0,2}
   - 924.869281 k_{1,3} + 2246.111111 k_{2,3} >= -2266.683081
 Cycle.0-2-1-3: 76.5719697 k_{0,2} - 178.6679293 k_{0,3}
   - 396.372549 k_{1,2} + 924.869281 k_{1,3} >= -945.4412507
 Cycle.0-3-1-2: - 76.5719697 k_{0,2} + 178.6679293 k_{0,3}
   + 396.372549 k_{1,2} - 924.869281 k_{1,3} >= -519.0404783
 Cycle.0-1-3-2: 31.52963458 k_{0,1} - 76.5719697 k_{0,2}
   + 924.869281 k_{1,3} - 2246.111111 k_{2,3} >= -900.3989156
 Cycle.0-1-2-3: 31.52963458 k_{0,1} - 178.6679293 k_{0,3}
   + 396.372549 k_{1,2} + 2246.111111 k_{2,3} >= -2618.013295
 Cycle.0-4-2-1: - 31.52963458 k_{0,1} + 24.00016961 k_{0,4}
   - 396.372549 k_{1,2} - 100.5721393 k_{2,4} >= 34.99983039
 Cycle.0-2-4-1: - 31.52963458 k_{0,1} + 76.5719697 k_{0,2}
   - 41.41205736 k_{1,4} + 100.5721393 k_{2,4} >= -118.144109
 Cycle.0-2-1-4: 76.5719697 k_{0,2} - 24.00016961 k_{0,4}
   - 396.372549 k_{1,2} + 41.41205736 k_{1,4} >= -58.98402706
 Cycle.0-4-1-2: - 76.5719697 k_{0,2} + 24.00016961 k_{0,4}
   + 396.372549 k_{1,2} - 41.41205736 k_{1,4} >= -361.3727186
 Cycle.0-1-4-2: 31.52963458 k_{0,1} - 76.5719697 k_{0,2}
   + 41.41205736 k_{1,4} - 100.5721393 k_{2,4} >= -13.94169194
 Cycle.0-1-2-4: 31.52963458 k_{0,1} - 24.00016961 k_{0,4}
   + 396.372549 k_{1,2} + 100.5721393 k_{2,4} >= -469.4743229
 Cycle.0-4-3-1: - 31.52963458 k_{0,1} + 24.00016961 k_{0,4}
   - 924.869281 k_{1,3} - 234.668325 k_{3,4} >= 18.99983039
 Cycle.0-3-4-1: - 31.52963458 k_{0,1} + 178.6679293 k_{0,3}
   - 41.41205736 k_{1,4} + 234.668325 k_{3,4} >= -370.3362543
 Cycle.0-3-1-4: 178.6679293 k_{0,3} - 24.00016961 k_{0,4}
   - 924.869281 k_{1,3} + 41.41205736 k_{1,4} >= -177.0799867
 Cycle.0-4-1-3: - 178.6679293 k_{0,3} + 24.00016961 k_{0,4}
   + 924.869281 k_{1,3} - 41.41205736 k_{1,4} >= -905.8694507
 Cycle.0-1-4-3: 31.52963458 k_{0,1} - 178.6679293 k_{0,3}
   + 41.41205736 k_{1,4} - 234.668325 k_{3,4} >= -29.94169194
 Cycle.0-1-3-4: 31.52963458 k_{0,1} - 24.00016961 k_{0,4}
   + 924.869281 k_{1,3} + 234.668325 k_{3,4} >= -1148.067241
 Cycle.0-4-3-2: - 76.5719697 k_{0,2} + 24.00016961 k_{0,4}
   - 2246.111111 k_{2,3} - 234.668325 k_{3,4} >= 35.99983039
 Cycle.0-3-4-2: - 76.5719697 k_{0,2} + 178.6679293 k_{0,3}
   - 100.5721393 k_{2,4} + 234.668325 k_{3,4} >= -353.3362543
 Cycle.0-3-2-4: 178.6679293 k_{0,3} - 24.00016961 k_{0,4}
   - 2246.111111 k_{2,3} + 100.5721393 k_{2,4} >= -219.2400686
 Cycle.0-4-2-3: - 178.6679293 k_{0,3} + 24.00016961 k_{0,4}
   + 2246.111111 k_{2,3} - 100.5721393 k_{2,4} >= -2210.111281
 Cycle.0-2-4-3: 76.5719697 k_{0,2} - 178.6679293 k_{0,3}
   + 100.5721393 k_{2,4} - 234.668325 k_{3,4} >= -117.144109
 Cycle.0-2-3-4: 76.5719697 k_{0,2} - 24.00016961 k_{0,4}
   + 2246.111111 k_{2,3} + 234.668325 k_{3,4} >= -2497.351406
 Cycle.1-4-3-2: - 396.372549 k_{1,2} + 41.41205736 k_{1,4}
   - 2246.111111 k_{2,3} - 234.668325 k_{3,4} >= 16.58794264
 Cycle.1-3-4-2: - 396.372549 k_{1,2} + 924.869281 k_{1,3}
   - 100.5721393 k_{2,4} + 234.668325 k_{3,4} >= -1101.537606
 Cycle.1-3-2-4: 924.869281 k_{1,3} - 41.41205736 k_{1,4}
   - 2246.111111 k_{2,3} + 100.5721393 k_{2,4} >= -967.4414203
 Cycle.1-4-2-3: - 924.869281 k_{1,3} + 41.41205736 k_{1,4}
   + 2246.111111 k_{2,3} - 100.5721393 k_{2,4} >= -2229.523168
 Cycle.1-2-4-3: 396.372549 k_{1,2} - 924.869281 k_{1,3}
   + 100.5721393 k_{2,4} - 234.668325 k_{3,4} >= -438.9446883
 Cycle.1-2-3-4: 396.372549 k_{1,2} - 41.41205736 k_{1,4}
   + 2246.111111 k_{2,3} + 234.668325 k_{3,4} >= -2819.151985
 Cycle.0-4-3-2-1: - 31.52963458 k_{0,1} + 24.00016961 k_{0,4}
   - 396.372549 k_{1,2} - 2246.111111 k_{2,3} - 234.668325 k_{3,4}
   >= 44.99983039
 Cycle.0-3-4-2-1: - 31.52963458 k_{0,1} + 178.6679293 k_{0,3}
   - 396.372549 k_{1,2} - 100.5721393 k_{2,4} + 234.668325 k_{3,4}
   >= -344.3362543
 Cycle.0-3-2-4-1: - 31.52963458 k_{0,1} + 178.6679293 k_{0,3}
   - 41.41205736 k_{1,4} - 2246.111111 k_{2,3} + 100.5721393 k_{2,4}
   >= -210.2400686
 Cycle.0-3-2-1-4: 178.6679293 k_{0,3} - 24.00016961 k_{0,4}
   - 396.372549 k_{1,2} + 41.41205736 k_{1,4} - 2246.111111 k_{2,3}
   >= -151.0799867
 Cycle.0-4-2-3-1: - 31.52963458 k_{0,1} + 24.00016961 k_{0,4}
   - 924.869281 k_{1,3} + 2246.111111 k_{2,3} - 100.5721393 k_{2,4}
   >= -2201.111281
 Cycle.0-2-4-3-1: - 31.52963458 k_{0,1} + 76.5719697 k_{0,2}
   - 924.869281 k_{1,3} + 100.5721393 k_{2,4} - 234.668325 k_{3,4}
   >= -108.144109
 Cycle.0-2-3-4-1: - 31.52963458 k_{0,1} + 76.5719697 k_{0,2}
   - 41.41205736 k_{1,4} + 2246.111111 k_{2,3} + 234.668325 k_{3,4}
   >= -2488.351406
 Cycle.0-2-3-1-4: 76.5719697 k_{0,2} - 24.00016961 k_{0,4}
   - 924.869281 k_{1,3} + 41.41205736 k_{1,4} + 2246.111111 k_{2,3}
   >= -2295.095138
 Cycle.0-4-2-1-3: - 178.6679293 k_{0,3} + 24.00016961 k_{0,4}
   - 396.372549 k_{1,2} + 924.869281 k_{1,3} - 100.5721393 k_{2,4}
   >= -879.8694507
 Cycle.0-2-4-1-3: 76.5719697 k_{0,2} - 178.6679293 k_{0,3}
   + 924.869281 k_{1,3} - 41.41205736 k_{1,4} + 100.5721393 k_{2,4}
   >= -1033.01339
 Cycle.0-2-1-4-3: 76.5719697 k_{0,2} - 178.6679293 k_{0,3}
   - 396.372549 k_{1,2} + 41.41205736 k_{1,4} - 234.668325 k_{3,4}
   >= -48.98402706
 Cycle.0-2-1-3-4: 76.5719697 k_{0,2} - 24.00016961 k_{0,4}
   - 396.372549 k_{1,2} + 924.869281 k_{1,3} + 234.668325 k_{3,4}
   >= -1167.109576
 Cycle.0-4-3-1-2: - 76.5719697 k_{0,2} + 24.00016961 k_{0,4}
   + 396.372549 k_{1,2} - 924.869281 k_{1,3} - 234.668325 k_{3,4}
   >= -351.3727186
 Cycle.0-3-4-1-2: - 76.5719697 k_{0,2} + 178.6679293 k_{0,3}
   + 396.372549 k_{1,2} - 41.41205736 k_{1,4} + 234.668325 k_{3,4}
   >= -740.7088034
 Cycle.0-3-1-4-2: - 76.5719697 k_{0,2} + 178.6679293 k_{0,3}
   - 924.869281 k_{1,3} + 41.41205736 k_{1,4} - 100.5721393 k_{2,4}
   >= -151.0799867
 Cycle.0-3-1-2-4: 178.6679293 k_{0,3} - 24.00016961 k_{0,4}
   + 396.372549 k_{1,2} - 924.869281 k_{1,3} + 100.5721393 k_{2,4}
   >= -606.6126176
 Cycle.0-4-1-3-2: - 76.5719697 k_{0,2} + 24.00016961 k_{0,4}
   + 924.869281 k_{1,3} - 41.41205736 k_{1,4} - 2246.111111 k_{2,3}
   >= -879.8694507
 Cycle.0-1-4-3-2: 31.52963458 k_{0,1} - 76.5719697 k_{0,2}
   + 41.41205736 k_{1,4} - 2246.111111 k_{2,3} - 234.668325 k_{3,4}
   >= -3.941691941
 Cycle.0-1-3-4-2: 31.52963458 k_{0,1} - 76.5719697 k_{0,2}
   + 924.869281 k_{1,3} - 100.5721393 k_{2,4} + 234.668325 k_{3,4}
   >= -1122.067241
 Cycle.0-1-3-2-4: 31.52963458 k_{0,1} - 24.00016961 k_{0,4}
   + 924.869281 k_{1,3} - 2246.111111 k_{2,3} + 100.5721393 k_{2,4}
   >= -987.9710549
 Cycle.0-4-1-2-3: - 178.6679293 k_{0,3} + 24.00016961 k_{0,4}
   + 396.372549 k_{1,2} - 41.41205736 k_{1,4} + 2246.111111 k_{2,3}
   >= -2597.48383
 Cycle.0-1-4-2-3: 31.52963458 k_{0,1} - 178.6679293 k_{0,3}
   + 41.41205736 k_{1,4} + 2246.111111 k_{2,3} - 100.5721393 k_{2,4}
   >= -2250.052803
 Cycle.0-1-2-4-3: 31.52963458 k_{0,1} - 178.6679293 k_{0,3}
   + 396.372549 k_{1,2} + 100.5721393 k_{2,4} - 234.668325 k_{3,4}
   >= -459.4743229
 Cycle.0-1-2-3-4: 31.52963458 k_{0,1} - 24.00016961 k_{0,4}
   + 396.372549 k_{1,2} + 2246.111111 k_{2,3} + 234.668325 k_{3,4}
   >= -2839.68162
Bounds
 -4488 <= k_{0,1} <= 4488
 -1848 <= k_{0,2} <= 1848
 -792 <= k_{0,3} <= 792
 -5896 <= k_{0,4} <= 5896
 -357 <= k_{1,2} <= 357
 -153 <= k_{1,3} <= 153
 -3417 <= k_{1,4} <= 3417
 -63 <= k_{2,3} <= 63
 -1407 <= k_{2,4} <= 1407
 -603 <= k_{3,4} <= 603
Binaries
 k_{0,1} k_{0,2} k_{0,3} k_{0,4} k_{1,2} k_{1,3} k_{1,4} k_{2,3} k_{2,4}
 k_{3,4}
End
